40
    97    29    35    31    69    73    13    86    97     7    53    88    60    69    33    89    64    51    11    43    42    96    23     8    58     3    82    47     1    20    80    24    89    53    88     6    70    57    53    64
     6    10     7     9     4     6     8     8     2     1     5     1     9     7     9     4     2     3    10     5     7     2     7     1     8     3     9     1     9     4     9     6     9     5     3     7    10     5     2     5
     0   883   280   474     0  1053   782     2   185     0   779   873   232     0     0   332   497    45   629   734   360  1082   434   425   151   821   973   288  1004   616   993  1209   581   675   530   742  1155     0  1174   465
